000 000 000 000 000 000 000 000 -99 -99 -99 -99 -99 -99 -99 -99 -99 -99 -99 000 000 -99 -99 000 000 000 000 -99 -99 -99 000
000 000 000 000 000 000 000 000 -99 -99 -99 -99 -99 -99 -99 -99 -99 -99 -99 000 000 000 -99 -99 000 000 000 -99 -99 -99 000
000 000 000 000 000 000 000 000 000 -99 -99 -99 -99 -99 000 000 -99 -99 -99 -99 000 000 -99 000 000 000 000 000 000 -99 -99
000 000 000 000 000 000 000 000 000 000 -99 000 000 -99 000 000 -99 -99 -99 -99 000 001 -99 000 000 000 000 -99 000 -99 -99
000 000 000 000 000 000 000 000 000 000 -99 000 000 000 -99 000 000 -99 -99 -99 000 001 -99 000 000 000 -99 -99 -99 -99 -99
000 000 000 000 000 000 000 000 000 000 000 -99 000 000 -99 000 000 -99 -99 -99 000 000 000 000 000 000 -99 -99 -99 -99 -99
000 000 000 000 000 000 000 000 000 000 000 -99 -99 000 -99 000 000 -99 -99 -99 000 000 000 000 000 000 -99 -99 -99 -99 -99
000 000 000 000 000 000 000 -99 000 -99 -99 -99 -99 000 -99 -99 -99 000 -99 -99 000 000 -99 000 000 000 -99 -99 -99 -99 -99
000 000 000 000 000 000 000 -99 000 000 000 -99 -99 000 000 -99 -99 000 -99 -99 000 000 000 000 000 000 -99 -99 -99 000 -99
000 000 000 000 000 000 000 -99 000 000 000 -99 -99 000 000 000 -99 -99 000 -99 000 000 -99 -99 000 000 000 000 -99 000 -99
000 000 000 000 000 000 000 000 000 000 000 000 -99 -99 000 000 -99 000 000 000 -99 000 -99 000 000 -99 000 000 000 000 000
000 000 000 000 000 000 000 000 000 000 000 000 -99 -99 000 000 000 000 000 000 -99 000 -99 000 000 000 -99 -99 000 000 000
000 000 000 000 000 000 000 000 000 000 000 000 -99 -99 -99 000 000 000 000 000 000 -99 -99 000 000 000 000 -99 000 000 000
000 000 000 000 000 000 000 000 000 -99 -99 -99 -99 -99 -99 -99 -99 000 000 000 -99 -99 -99 000 000 000 -99 -99 -99 000 000
000 000 000 000 000 000 000 000 000 -99 -99 -99 -99 -99 -99 -99 -99 000 000 -99 -99 -99 -99 -99 000 000 000 -99 000 000 000
000 -99 000 000 -99 000 000 000 000 -99 -99 -99 -99 000 000 -99 000 -99 000 -99 -99 000 -99 -99 000 000 000 000 000 000 000
000 -99 -99 -99 -99 000 000 000 000 -99 -99 -99 -99 000 000 000 000 -99 000 -99 -99 -99 000 -99 000 000 000 000 000 000 000
000 000 000 -99 -99 -99 000 000 000 -99 -99 -99 -99 000 000 000 000 -99 -99 -99 -99 -99 -99 -99 000 000 000 000 000 000 000
000 000 000 -99 -99 -99 -99 000 000 -99 -99 -99 -99 -99 -99 000 000 000 -99 -99 -99 -99 000 -99 000 000 000 000 000 000 000
000 000 000 000 000 -99 000 000 000 000 -99 -99 -99 -99 -99 -99 000 000 -99 -99 -99 -99 000 -99 -99 000 000 -99 -99 000 000
000 000 000 000 000 000 -99 000 000 000 000 000 -99 -99 -99 -99 000 000 -99 -99 -99 000 000 -99 -99 -99 -99 -99 -99 -99 -99
000 000 000 000 000 000 000 000 000 000 000 000 -99 -99 -99 -99 000 000 -99 -99 000 000 000 -99 -99 -99 -99 -99 -99 -99 -99
000 000 000 000 000 000 000 000 000 000 000 000 000 000 000 000 000 000 -99 000 000 000 000 -99 -99 -99 -99 -99 -99 -99 -99
000 000 000 000 000 001 001 001 002 003 003 002 001 001 000 000 000 000 -99 000 000 000 000 -99 -99 -99 -99 -99 -99 -99 000
000 000 000 000 001 007 004 005 004 002 008 005 003 002 002 001 000 000 -99 -99 000 000 000 -99 -99 -99 -99 -99 -99 -99 000
000 000 000 002 002 011 019 029 023 021 021 017 010 004 005 005 000 000 -99 -99 -99 -99 000 -99 -99 -99 -99 -99 -99 000 000
000 000 002 002 006 017 037 039 040 031 031 029 019 009 013 018 001 000 -99 -99 -99 000 000 -99 -99 -99 -99 -99 -99 000 000
000 000 002 004 006 007 035 040 046 028 022 027 024 014 023 006 000 000 -99 -99 000 000 000 -99 -99 -99 -99 -99 -99 000 000
000 000 001 003 004 004 020 033 045 028 019 016 012 013 006 001 000 000 -99 -99 000 000 -99 -99 -99 -99 -99 -99 -99 -99 -99
000 001 001 005 004 004 015 020 030 024 009 008 016 003 001 001 000 000 000 000 -99 000 -99 -99 -99 -99 -99 -99 -99 -99 -99
000 002 005 002 002 006 009 011 013 003 002 002 001 000 000 001 001 000 000 000 -99 000 -99 000 000 -99 -99 -99 -99 -99 -99
000 001 003 001 000 001 002 002 000 000 000 000 000 000 001 001 000 000 000 -99 -99 000 000 000 000 000 -99 -99 -99 -99 000
000 001 000 000 000 000 000 000 000 000 000 001 002 003 003 000 000 000 000 -99 000 000 000 000 000 000 -99 -99 000 000 000
000 000 000 000 000 000 000 000 000 000 001 002 006 012 003 000 000 000 000 -99 000 000 000 000 000 000 000 000 000 000 000
000 000 000 000 000 000 000 000 000 000 000 000 012 015 001 000 000 000 -99 000 000 000 000 000 000 000 000 000 000 000 000
000 000 000 000 000 000 000 000 000 000 000 000 003 003 001 001 001 000 000 000 000 000 000 000 000 000 000 000 000 000 000
000 000 000 001 001 000 000 001 000 000 000 000 001 000 000 000 001 001 000 000 000 000 000 000 000 000 000 000 000 000 000
000 000 000 001 002 001 002 003 002 003 007 000 000 000 001 001 002 002 000 000 000 000 000 000 000 000 000 000 000 000 -99
000 000 000 001 002 005 010 016 009 013 021 006 000 000 001 002 003 001 000 000 000 000 000 000 000 000 000 000 000 000 -99
000 000 000 000 001 004 011 017 010 042 087 011 000 000 002 003 004 002 000 000 000 001 001 000 000 000 000 000 000 000 -99
000 000 000 000 000 002 007 010 024 078 078 018 001 001 002 005 007 010 007 001 003 007 007 002 001 000 000 000 000 -99 -99
000 000 000 000 000 001 006 009 040 053 060 030 005 006 013 030 036 051 009 010 021 035 018 011 001 001 000 000 000 000 -99
000 -99 -99 000 000 002 009 011 024 047 047 035 010 013 011 043 085 069 020 066 129 082 024 029 005 003 001 000 000 000 002
000 -99 -99 000 000 001 004 005 017 028 060 034 012 016 016 033 082 055 047 096 118 146 082 066 010 006 004 004 001 001 003
000 -99 -99 -99 000 000 001 001 006 015 015 008 010 012 015 056 052 061 062 116 129 183 123 057 019 023 024 007 005 004 014
000 -99 000 000 000 000 000 000 000 003 006 003 004 009 013 020 033 055 069 082 239 220 211 072 035 043 039 018 035 025 039
000 000 000 003 000 002 000 000 000 000 000 002 003 003 006 013 012 025 038 109 066 085 098 062 075 051 050 039 075 035 096
000 000 006 010 002 002 000 000 000 001 002 001 001 002 003 007 007 009 020 046 077 051 046 118 085 066 046 038 036 051 123
000 004 035 016 001 002 007 000 001 008 014 001 000 001 006 005 005 008 021 029 017 016 114 199 087 055 029 019 034 039 021
002 008 021 007 009 011 010 002 004 015 014 001 001 003 007 004 005 005 018 027 008 032 152 134 065 077 025 007 004 006 004
005 011 024 023 039 016 009 008 019 017 011 003 001 008 011 009 008 006 017 015 010 066 065 039 055 024 004 000 003 002 000
006 010 013 018 026 013 022 040 050 031 024 005 004 010 025 046 033 018 033 016 003 013 021 012 010 012 000 001 006 005 001
005 007 005 005 008 017 031 042 054 039 017 009 006 017 031 082 057 040 038 025 003 002 002 000 002 001 001 002 010 009 002
002 003 003 002 002 015 027 034 018 018 007 009 005 006 014 057 043 041 033 013 001 001 001 000 000 001 001 004 005 003 001
004 002 003 002 002 004 008 006 008 008 003 005 002 002 008 015 021 015 017 003 000 000 001 000 -99 001 000 001 001 003 001
